28 33
88 66
28 79
7 91
33 81
93 54
75 21
85 30
37 38
76 15
62 93
92 19
35 10
13 17
31 52
70 59
45 81
11 44
98 6
87 16
44 32
92 63
93 44
47 29
23 4
69 81
97 65
43 62
21 16
65 94
0 89
97 96
75 77
81 86
91 42
55 58
85 47
81 58
23 90
99 51
59 49
48 77
55 70
16 46
54 51
71 36
95 79
93 69
76 7
60 74
21 56
70 14
47 15
1 44
89 39
13 11
74 40
98 22
36 12
23 6
41 11
61 10
2 62
84 34
3 3
23 30
98 96
77 81
46 42
67 98
6 99
13 66
58 63
91 57
93 22
99 72
12 26
64 28
92 91
78 46
99 16
23 49
47 27
31 43
62 34
65 60
73 71
32 42
64 42
32 14
49 27
86 83
88 54
6 18
21 95
80 57
34 87
76 70
33 59
65 11
